solution status: optimal solution found
objective value:                                    0
one.thingy.devices[0].thingy.column_lower_y                   21 	(obj:0)
one.thingy.devices[0].thingy.column_lower_z                   22 	(obj:0)
$_6__7_y                                           19 	(obj:0)
$_6__7_z                                           19 	(obj:0)
one.ctrl_s[3].hole_y                               23 	(obj:0)
one.ctrl_s[3].hole_z                               20 	(obj:0)
one.ctrl_s[3].flush_y                              21 	(obj:0)
one.ctrl_s[3].flush_z                              21 	(obj:0)
$_7__7_y                                           21 	(obj:0)
$_7__7_z                                           20 	(obj:0)
